n=10;
hearts=66;
clubs=73;
spades=18;
diamonds=86;
blocked=21;
m=array2d(1..n, 1..n,[
	_,5,5,_,5,_,5,5,4,1,
	1,_,_,5,_,_,_,_,3,5,
	1,_,_,_,_,_,5,_,1,5,
	5,5,_,_,_,2,_,_,_,_,
	5,_,_,_,_,_,5,4,_,4,
	_,_,_,5,_,5,_,_,_,_,
	_,_,_,_,4,_,_,_,5,_,
	_,_,3,_,_,5,_,_,_,_,
	_,_,3,5,_,_,_,3,5,_,
	_,_,_,_,5,3,5,_,1,1
]);
